543.27,69.31,79.15
559.9,67.25,76.8
545.72,68.99,78.8
577.6,65.19,74.45
568.01,66.29,75.71
587.97,64.04,73.14
555.89,67.73,77.36
528.41,71.25,81.38
563.76,66.79,76.28
602.59,62.48,71.36
583.98,64.47,73.64
600.03,62.75,71.67
564.54,66.69,76.17
527.94,71.32,81.45
609.3,61.8,70.58
580.3,64.88,74.1
601.93,62.55,71.44
669.78,56.22,64.2
528.06,71.3,81.43
587.87,64.05,73.15
